(declare-const v0 Bool)
(declare-const v1 Bool)
(declare-const v2 Bool)
(declare-const v3 Bool)
(declare-const v4 Bool)
(assert (edge true v1))
(assert (edge (not v2) (or v2 (not v3) v4)))
(assert (edge (or v1 v3 v4) (or v0 v3)))
(assert (edge (or (not v1) v2) (or v4 (not v0))))
(assert (edge (or v3 (not v2)) (or (not v1) v2 (not v0))))
(assert (not (edge v1 (or v0 v3 (not v1)))))